% File represents an instance of a Composite Structure problem to be solved by a CP framework
% Created on 2025-03-26 10:41:35.786
T = 50;
n = 25;
m = 40;
edges = [(1, 2),
(6, 7),
(11, 12),
(16, 17),
(21, 22),
(2, 3),
(7, 8),
(12, 13),
(17, 18),
(22, 23),
(3, 4),
(8, 9),
(13, 14),
(18, 19),
(24, 23),
(4, 5),
(9, 10),
(14, 15),
(19, 20),
(24, 25),
(1, 6),
(6, 11),
(11, 16),
(16, 21),
(2, 7),
(7, 12),
(12, 17),
(17, 22),
(3, 8),
(8, 13),
(13, 18),
(18, 23),
(4, 9),
(9, 14),
(14, 19),
(24, 19),
(5, 10),
(10, 15),
(15, 20),
(25, 20)];
counts = [|8, 14, 8, 20,
|8, 12, 8, 16,
|6, 10, 6, 16,
|6, 10, 6, 10,
|6, 10, 6, 6,
|8, 10, 8, 18,
|6, 10, 6, 16,
|6, 6, 6, 14,
|6, 6, 6, 8,
|6, 6, 6, 4,
|6, 8, 6, 18,
|4, 8, 4, 16,
|4, 6, 4, 12,
|4, 6, 4, 6,
|4, 4, 4, 4,
|4, 8, 4, 16,
|4, 8, 4, 10,
|4, 4, 4, 8,
|2, 4, 2, 6,
|2, 2, 2, 4,
|4, 8, 4, 10,
|2, 8, 2, 8,
|2, 4, 2, 6,
|2, 4, 2, 8,
|2, 2, 2, 6|];
